# Solution for model location_assignment_routing_problem
# Objective value = 5.9893099999999993e+02
X[0] 1
X[1] 1
X[2] 0
X[3] 1
X[4] 1
X[5] 0
X[6] 1
Y[0,0] 0
Y[0,1] 1
Y[0,2] 0
Y[0,3] 0
Y[0,4] 0
Y[0,5] 0
Y[1,0] 0
Y[1,1] 1
Y[1,2] 0
Y[1,3] 0
Y[1,4] 0
Y[1,5] 0
Y[2,0] 0
Y[2,1] 0
Y[2,2] 0
Y[2,3] 0
Y[2,4] 1
Y[2,5] 0
Y[3,0] 0
Y[3,1] 0
Y[3,2] 0
Y[3,3] 1
Y[3,4] 0
Y[3,5] 0
Y[4,0] 1
Y[4,1] 0
Y[4,2] 0
Y[4,3] 0
Y[4,4] 0
Y[4,5] 0
Y[5,0] 1
Y[5,1] 0
Y[5,2] 0
Y[5,3] 0
Y[5,4] 0
Y[5,5] 0
Y[6,0] 0
Y[6,1] 0
Y[6,2] 0
Y[6,3] 0
Y[6,4] 1
Y[6,5] 0
Z[0,1] 0
Z[0,2] 0
Z[0,3] 0
Z[0,4] 0
Z[0,5] 0
Z[0,6] 1
Z[1,0] 1
Z[1,2] 0
Z[1,3] 0
Z[1,4] 0
Z[1,5] 0
Z[1,6] 0
Z[2,0] 0
Z[2,1] 0
Z[2,3] 0
Z[2,4] 0
Z[2,5] 0
Z[2,6] 0
Z[3,0] 0
Z[3,1] 0
Z[3,2] 0
Z[3,4] 0
Z[3,5] 0
Z[3,6] 1
Z[4,0] 0
Z[4,1] 0
Z[4,2] 0
Z[4,3] 0
Z[4,5] 0
Z[4,6] 1
Z[5,0] 0
Z[5,1] 0
Z[5,2] 0
Z[5,3] 0
Z[5,4] 0
Z[5,6] 0
Z[6,0] 0
Z[6,1] 1
Z[6,2] 0
Z[6,3] 1
Z[6,4] 1
Z[6,5] 0
T[0] 10
T[1] 3
T[2] 2
T[3] 2
T[4] 2
T[5] 0
W_1[0,1] 0
W_1[0,2] 0
W_1[0,3] 0
W_1[0,4] 0
W_1[0,5] 0
W_1[0,6] 1
W_1[1,0] 1
W_1[1,2] 0
W_1[1,3] 0
W_1[1,4] 0
W_1[1,5] 0
W_1[1,6] 0
W_1[2,0] 0
W_1[2,1] 0
W_1[2,3] 0
W_1[2,4] 0
W_1[2,5] 0
W_1[2,6] 0
W_1[3,0] 0
W_1[3,1] 0
W_1[3,2] 0
W_1[3,4] 0
W_1[3,5] 0
W_1[3,6] 1
W_1[4,0] 0
W_1[4,1] 0
W_1[4,2] 0
W_1[4,3] 0
W_1[4,5] 0
W_1[4,6] 1
W_1[5,0] 0
W_1[5,1] 0
W_1[5,2] 0
W_1[5,3] 0
W_1[5,4] 0
W_1[5,6] 0
W_1[6,0] 0
W_1[6,1] 1
W_1[6,2] 0
W_1[6,3] 1
W_1[6,4] 1
W_1[6,5] 0
W_2[0,1] 0
W_2[0,2] 0
W_2[0,3] 0
W_2[0,4] 0
W_2[0,5] 0
W_2[0,6] 1
W_2[1,0] 1
W_2[1,2] 0
W_2[1,3] 0
W_2[1,4] 0
W_2[1,5] 0
W_2[1,6] 0
W_2[2,0] 0
W_2[2,1] 0
W_2[2,3] 0
W_2[2,4] 0
W_2[2,5] 0
W_2[2,6] 0
W_2[3,0] 0
W_2[3,1] 0
W_2[3,2] 0
W_2[3,4] 0
W_2[3,5] 0
W_2[3,6] 1
W_2[4,0] 0
W_2[4,1] 0
W_2[4,2] 0
W_2[4,3] 0
W_2[4,5] 0
W_2[4,6] 1
W_2[5,0] 0
W_2[5,1] 0
W_2[5,2] 0
W_2[5,3] 0
W_2[5,4] 0
W_2[5,6] 0
W_2[6,0] 0
W_2[6,1] 1
W_2[6,2] 0
W_2[6,3] 1
W_2[6,4] 1
W_2[6,5] 0
